1 -1 -2 0
1 1 3 0
1 4 5 0
1 -4 -1 0
1 4 -3 0
1 6 7 0
1 6 8 0
1 -6 -2 0
1 6 -9 0
1 6 10 0
1 -6 3 0
1 6 -11 0
1 -12 7 0
1 12 9 0
1 12 -10 0
1 -12 -6 0
1 12 11 0
1 -2 13 0
1 2 -14 0
1 2 4 0
1 -2 15 0
1 -2 -16 0
1 2 -1 0
1 -11 -13 0
1 -11 -17 0
1 11 2 0
1 11 6 0
1 -11 1 0
1 5 -13 0
1 5 -18 0
1 -5 19 0
1 -5 -12 0
1 5 4 0
1 -5 -20 0
1 -5 -16 0
1 5 21 0
1 5 6 0
1 -5 1 0
1 5 3 0
1 -3 -18 0
1 3 19 0
1 -3 -4 0
1 3 5 0
1 3 -6 0
1 -3 1 0
1 -3 22 0
1 -23 -8 0
1 23 -14 0
1 -23 -2 0
1 -23 -10 0
1 23 11 0
1 14 7 0
1 14 -8 0
1 14 -2 0
1 14 -9 0
1 -14 23 0
1 -14 11 0
1 -24 7 0
1 -24 -17 0
1 -24 -25 0
1 24 26 0
1 -24 2 0
1 24 -9 0
1 -24 -10 0
1 -24 -27 0
1 -24 -28 0
1 24 11 0
1 -17 7 0
1 -17 8 0
1 17 25 0
1 17 2 0
1 -17 9 0
1 -17 10 0
1 -17 -24 0
1 17 -27 0
1 17 -29 0
1 17 11 0
1 -10 30 0
1 10 31 0
1 -10 -14 0
1 10 32 0
1 10 33 0
1 10 -23 0
1 10 -6 0
1 -8 30 0
1 -8 -31 0
1 -8 17 0
1 8 -32 0
1 -8 -34 0
1 -8 33 0
1 -8 24 0
1 -9 14 0
1 9 -12 0
1 -9 16 0
1 -9 -23 0
1 -9 6 0
1 -7 -35 0
1 7 -13 0
1 7 -17 0
1 7 -12 0
1 7 -32 0
1 7 9 0
1 -7 -24 0
1 7 -23 0
1 33 -8 0
1 -33 26 0
1 33 10 0
1 33 27 0
1 31 8 0
1 -31 13 0
1 -31 33 0
1 -34 -25 0
1 -34 26 0
1 34 -10 0
1 -34 27 0
1 30 -35 0
1 -30 8 0
1 30 26 0
1 30 10 0
1 29 -33 0
1 -26 31 0
1 -26 17 0
1 -26 -34 0
1 26 33 0
1 -26 24 0
1 26 29 0
1 -27 -31 0
1 -27 -36 0
1 27 -32 0
1 -27 24 0
1 25 30 0
1 25 -17 0
1 -25 32 0
1 25 -34 0
1 -25 -24 0
1 25 -27 0
1 -25 -37 0
1 21 38 0
1 -21 5 0
1 -21 39 0
1 21 -23 0
1 -19 14 0
1 19 -38 0
1 -19 39 0
1 -19 -40 0
1 -19 -21 0
1 -28 -41 0
1 28 38 0
1 28 -42 0
1 -28 -5 0
1 28 24 0
1 -28 43 0
1 -28 3 0
1 -18 40 0
1 -18 17 0
1 18 41 0
1 -18 -38 0
1 -18 28 0
1 38 40 0
1 38 35 0
1 -38 18 0
1 38 -19 0
1 38 28 0
1 -40 19 0
1 40 -16 0
1 40 -28 0
1 -40 -21 0
1 -41 -18 0
1 -41 -19 0
1 41 39 0
1 41 -28 0
1 -41 -21 0
1 -39 28 0
1 39 21 0
1 16 -7 0
1 16 -38 0
1 16 42 0
1 -16 2 0
1 -16 44 0
1 -13 7 0
1 -13 31 0
1 13 5 0
1 -13 9 0
1 -13 -40 0
1 13 -44 0
1 -13 43 0
1 13 -3 0
1 -45 35 0
1 -45 42 0
1 -45 46 0
1 45 -15 0
1 -45 34 0
1 45 40 0
1 -35 47 0
1 -35 30 0
1 35 7 0
1 35 20 0
1 35 -15 0
1 35 -45 0
1 -35 22 0
1 46 -18 0
1 46 36 0
1 -46 32 0
1 -46 -45 0
1 46 -16 0
1 46 -48 0
1 43 13 0
1 -43 46 0
1 43 -32 0
1 43 -45 0
1 43 48 0
1 -43 37 0
1 42 35 0
1 42 -13 0
1 42 -18 0
1 42 -45 0
1 -42 -16 0
1 -42 -28 0
1 44 45 0
1 -44 16 0
1 -32 -47 0
1 32 -7 0
1 32 -8 0
1 -32 25 0
1 -32 -46 0
1 -32 9 0
1 -32 15 0
1 32 -10 0
1 -32 -43 0
1 -32 22 0
1 -32 37 0
1 -37 -7 0
1 -37 -46 0
1 37 -20 0
1 37 22 0
1 -36 20 0
1 -36 -27 0
1 36 43 0
1 -36 -48 0
1 48 47 0
1 48 -46 0
1 48 -36 0
1 -48 -20 0
1 -48 -22 0
1 48 43 0
1 -15 -35 0
1 -15 36 0
1 15 -32 0
1 -15 2 0
1 47 -35 0
1 -47 45 0
1 47 37 0
1 -20 -36 0
1 -20 -5 0
1 20 32 0
1 -20 -45 0
1 20 -22 0
1 -20 -37 0
1 22 -35 0
1 22 36 0
1 -22 20 0
1 22 -48 0
1 -22 -37 0
